c FILE /home/rafael/Documents/HappySet/MIHS/inputs/happygen/output/graph_scale_free_k3_p0.5_v50_20241127_082418.txt
c SOURCE This is a scale-free graph formed for the happy graph colouring problem.
c DESCRIPTION It was generated using the problem generator of Rhyd Lewis
c
c GRAPH STATS
c Seed                             = -1728437335
c Number of Nodes                  = 50
c Number of colours k              = 3
c Number of pre-assignments        = 25
c Number of links per new node     = 5
c Density                          = 0.191837
c 
c The degrees of nodes 1 to 50, respectively, are as follows 
c [26, 24, 22, 22, 21, 21, 20, 19, 15, 13, 12, 11, 11, 10, 9, 9, 9, 8, 7, 7, 7, 7, 7, 7, 7, 7, 
c  7, 6, 6, 6, 6, 6, 6, 6, 6, 6, 6, 5, 5, 5, 5, 5, 5, 5, 5, 5, 5, 5, 5, 5] 
c  
p edge 50 235 3
e 1 2
e 1 3
e 1 4
e 1 5
e 1 6
e 1 7
e 1 8
e 1 9
e 1 10
e 1 11
e 1 13
e 1 14
e 1 16
e 1 17
e 1 19
e 1 29
e 1 30
e 1 33
e 1 35
e 1 36
e 1 38
e 1 39
e 1 40
e 1 43
e 1 44
e 1 47
e 2 3
e 2 4
e 2 5
e 2 6
e 2 7
e 2 8
e 2 9
e 2 11
e 2 13
e 2 14
e 2 16
e 2 18
e 2 19
e 2 20
e 2 22
e 2 24
e 2 28
e 2 29
e 2 34
e 2 39
e 2 44
e 2 45
e 2 48
e 3 4
e 3 5
e 3 6
e 3 7
e 3 8
e 3 9
e 3 12
e 3 16
e 3 18
e 3 20
e 3 21
e 3 22
e 3 23
e 3 24
e 3 28
e 3 39
e 3 40
e 3 42
e 3 47
e 3 49
e 4 5
e 4 7
e 4 9
e 4 10
e 4 12
e 4 14
e 4 20
e 4 21
e 4 23
e 4 25
e 4 26
e 4 27
e 4 28
e 4 29
e 4 30
e 4 32
e 4 35
e 4 40
e 4 42
e 5 6
e 5 8
e 5 9
e 5 11
e 5 15
e 5 17
e 5 18
e 5 21
e 5 27
e 5 29
e 5 34
e 5 41
e 5 42
e 5 45
e 5 46
e 5 48
e 5 50
e 6 9
e 6 10
e 6 12
e 6 16
e 6 19
e 6 20
e 6 21
e 6 26
e 6 30
e 6 31
e 6 33
e 6 36
e 6 38
e 6 42
e 6 43
e 6 44
e 6 48
e 7 8
e 7 9
e 7 10
e 7 13
e 7 15
e 7 17
e 7 19
e 7 21
e 7 24
e 7 27
e 7 28
e 7 32
e 7 34
e 7 37
e 7 41
e 7 43
e 8 10
e 8 11
e 8 12
e 8 14
e 8 17
e 8 19
e 8 22
e 8 24
e 8 25
e 8 28
e 8 29
e 8 31
e 8 40
e 8 50
e 9 16
e 9 20
e 9 22
e 9 23
e 9 26
e 9 40
e 9 41
e 9 46
e 10 11
e 10 12
e 10 25
e 10 33
e 10 38
e 10 39
e 10 45
e 10 47
e 11 14
e 11 17
e 11 27
e 11 30
e 11 31
e 11 33
e 11 38
e 12 18
e 12 22
e 12 34
e 12 36
e 12 42
e 12 43
e 13 15
e 13 24
e 13 28
e 13 32
e 13 33
e 13 36
e 13 38
e 13 41
e 14 23
e 14 27
e 14 31
e 14 32
e 14 35
e 15 18
e 15 19
e 15 21
e 15 34
e 15 46
e 15 47
e 16 26
e 16 30
e 16 43
e 16 50
e 17 36
e 17 46
e 17 47
e 17 50
e 18 20
e 18 25
e 18 31
e 19 39
e 20 35
e 21 25
e 22 32
e 22 49
e 23 32
e 23 37
e 23 41
e 24 26
e 24 45
e 25 44
e 25 48
e 26 46
e 26 48
e 27 37
e 27 50
e 29 49
e 30 35
e 31 45
e 33 44
e 34 37
e 35 49
e 36 37
e 37 49
n 3 1
n 4 1
n 8 1
n 9 1
n 13 2
n 14 1
n 19 1
n 21 1
n 22 1
n 23 1
n 25 1
n 26 1
n 27 1
n 30 1
n 33 2
n 34 2
n 35 1
n 36 2
n 38 2
n 39 1
n 40 1
n 42 1
n 43 1
n 45 3
n 47 1
